Route 1: 0 1 7 78 73 19 27 0
Route 2: 0 3 55 21 68 37 88 50 47 0
Route 3: 0 87 97 85 17 95 41 70 83 22 86 79 0
Route 4: 0 43 100 16 71 35 20 93 23 0
Route 5: 0 4 28 9 59 81 91 48 42 96 8 0
Route 6: 0 11 94 61 64 5 49 30 6 26 74 2 12 0
Route 7: 0 56 46 80 25 69 57 51 0
Route 8: 0 98 84 63 53 72 77 29 14 0
Route 9: 0 65 52 60 31 82 45 76 66 39 0
Route 10: 0 89 36 90 40 99 54 0
Route 11: 0 44 33 24 15 10 62 34 67 0
Route 12: 0 75 13 18 92 58 32 38 0
